c File: instances/16_0.10_3.col
c
c Description: Random graph of size 16 vertices and P(0.1) of edges between any two vertices.
p col 16 120
e 2 11
e 2 14
e 3 15
e 4 9
e 4 10
e 4 12
e 4 13
e 5 7
e 6 7
e 6 15
e 8 10
e 10 12
e 10 14
e 11 15